5 5
4 23 2 98 0 82 3 97 1 97
2 60 4 81 0 6 1 13 3 21
0 95 3 58 2 85 1 97 4 28
2 70 3 8 0 77 4 98 1 58
2 40 4 86 0 1 3 77 1 65
-1
0 3 5
0 2 4 5
0 3 5
0 3 5
0 2 4 5
-2
278 401
205 201 288
371 560
204 372
144 316 358

567 5
10 22 17 2 7
24 19 13 8 4
20 15 1 5 12
16 23 11 3 9
0 21 18 6 14
